MILP_speck/line-3.lp
Minimize
pro1R1 + pro2R1 + pro3R1 + pro4R1 + pro5R1 + pro6R1 + pro7R1 + pro8R1 + pro9R1 + pro10R1 + pro11R1 + pro12R1 + pro13R1 + pro14R1 + pro15R1 + pro1R2 + pro2R2 + pro3R2 + pro4R2 + pro5R2 + pro6R2 + pro7R2 + pro8R2 + pro9R2 + pro10R2 + pro11R2 + pro12R2 + pro13R2 + pro14R2 + pro15R2 + pro1R3 + pro2R3 + pro3R3 + pro4R3 + pro5R3 + pro6R3 + pro7R3 + pro8R3 + pro9R3 + pro10R3 + pro11R3 + pro12R3 + pro13R3 + pro14R3 + pro15R3

Subject To
p0R1 + p1R1 + p2R1 + p3R1 + p4R1 + p5R1 + p6R1 + p7R1 + p8R1 + p9R1 + p10R1 + p11R1 + p12R1 + p13R1 + p14R1 + p15R1 + p16R1 + p17R1 + p18R1 + p19R1 + p20R1 + p21R1 + p22R1 + p23R1 + p24R1 + p25R1 + p26R1 + p27R1 + p28R1 + p29R1 + p30R1 + p31R1 >= 1
pro0R1 = 0
pro0R2 = 0
pro0R3 = 0
p16R1 + p30R2 + x4_1_0 <= 2
p16R1 + p30R2 + x4_1_0 - 2 d16R1 >= 0
d16R1 - p16R1 >= 0
d16R1 - p30R2 >= 0
d16R1 - x4_1_0 >= 0
p17R1 + p31R2 + x4_1_1 <= 2
p17R1 + p31R2 + x4_1_1 - 2 d17R1 >= 0
d17R1 - p17R1 >= 0
d17R1 - p31R2 >= 0
d17R1 - x4_1_1 >= 0
p18R1 + p16R2 + x4_1_2 <= 2
p18R1 + p16R2 + x4_1_2 - 2 d18R1 >= 0
d18R1 - p18R1 >= 0
d18R1 - p16R2 >= 0
d18R1 - x4_1_2 >= 0
p19R1 + p17R2 + x4_1_3 <= 2
p19R1 + p17R2 + x4_1_3 - 2 d19R1 >= 0
d19R1 - p19R1 >= 0
d19R1 - p17R2 >= 0
d19R1 - x4_1_3 >= 0
p20R1 + p18R2 + x4_1_4 <= 2
p20R1 + p18R2 + x4_1_4 - 2 d20R1 >= 0
d20R1 - p20R1 >= 0
d20R1 - p18R2 >= 0
d20R1 - x4_1_4 >= 0
p21R1 + p19R2 + x4_1_5 <= 2
p21R1 + p19R2 + x4_1_5 - 2 d21R1 >= 0
d21R1 - p21R1 >= 0
d21R1 - p19R2 >= 0
d21R1 - x4_1_5 >= 0
p22R1 + p20R2 + x4_1_6 <= 2
p22R1 + p20R2 + x4_1_6 - 2 d22R1 >= 0
d22R1 - p22R1 >= 0
d22R1 - p20R2 >= 0
d22R1 - x4_1_6 >= 0
p23R1 + p21R2 + x4_1_7 <= 2
p23R1 + p21R2 + x4_1_7 - 2 d23R1 >= 0
d23R1 - p23R1 >= 0
d23R1 - p21R2 >= 0
d23R1 - x4_1_7 >= 0
p24R1 + p22R2 + x4_1_8 <= 2
p24R1 + p22R2 + x4_1_8 - 2 d24R1 >= 0
d24R1 - p24R1 >= 0
d24R1 - p22R2 >= 0
d24R1 - x4_1_8 >= 0
p25R1 + p23R2 + x4_1_9 <= 2
p25R1 + p23R2 + x4_1_9 - 2 d25R1 >= 0
d25R1 - p25R1 >= 0
d25R1 - p23R2 >= 0
d25R1 - x4_1_9 >= 0
p26R1 + p24R2 + x4_1_10 <= 2
p26R1 + p24R2 + x4_1_10 - 2 d26R1 >= 0
d26R1 - p26R1 >= 0
d26R1 - p24R2 >= 0
d26R1 - x4_1_10 >= 0
p27R1 + p25R2 + x4_1_11 <= 2
p27R1 + p25R2 + x4_1_11 - 2 d27R1 >= 0
d27R1 - p27R1 >= 0
d27R1 - p25R2 >= 0
d27R1 - x4_1_11 >= 0
p28R1 + p26R2 + x4_1_12 <= 2
p28R1 + p26R2 + x4_1_12 - 2 d28R1 >= 0
d28R1 - p28R1 >= 0
d28R1 - p26R2 >= 0
d28R1 - x4_1_12 >= 0
p29R1 + p27R2 + x4_1_13 <= 2
p29R1 + p27R2 + x4_1_13 - 2 d29R1 >= 0
d29R1 - p29R1 >= 0
d29R1 - p27R2 >= 0
d29R1 - x4_1_13 >= 0
p30R1 + p28R2 + x4_1_14 <= 2
p30R1 + p28R2 + x4_1_14 - 2 d30R1 >= 0
d30R1 - p30R1 >= 0
d30R1 - p28R2 >= 0
d30R1 - x4_1_14 >= 0
p31R1 + p29R2 + x4_1_15 <= 2
p31R1 + p29R2 + x4_1_15 - 2 d31R1 >= 0
d31R1 - p31R1 >= 0
d31R1 - p29R2 >= 0
d31R1 - x4_1_15 >= 0
x3_1_0 + p16R2 + p0R2 <= 2
x3_1_0 + p16R2 + p0R2 - 2 d0R1 >= 0
d0R1 - x3_1_0 >= 0
d0R1 - p16R2 >= 0
d0R1 - p0R2 >= 0
x3_1_1 + p17R2 + p1R2 <= 2
x3_1_1 + p17R2 + p1R2 - 2 d1R1 >= 0
d1R1 - x3_1_1 >= 0
d1R1 - p17R2 >= 0
d1R1 - p1R2 >= 0
x3_1_2 + p18R2 + p2R2 <= 2
x3_1_2 + p18R2 + p2R2 - 2 d2R1 >= 0
d2R1 - x3_1_2 >= 0
d2R1 - p18R2 >= 0
d2R1 - p2R2 >= 0
x3_1_3 + p19R2 + p3R2 <= 2
x3_1_3 + p19R2 + p3R2 - 2 d3R1 >= 0
d3R1 - x3_1_3 >= 0
d3R1 - p19R2 >= 0
d3R1 - p3R2 >= 0
x3_1_4 + p20R2 + p4R2 <= 2
x3_1_4 + p20R2 + p4R2 - 2 d4R1 >= 0
d4R1 - x3_1_4 >= 0
d4R1 - p20R2 >= 0
d4R1 - p4R2 >= 0
x3_1_5 + p21R2 + p5R2 <= 2
x3_1_5 + p21R2 + p5R2 - 2 d5R1 >= 0
d5R1 - x3_1_5 >= 0
d5R1 - p21R2 >= 0
d5R1 - p5R2 >= 0
x3_1_6 + p22R2 + p6R2 <= 2
x3_1_6 + p22R2 + p6R2 - 2 d6R1 >= 0
d6R1 - x3_1_6 >= 0
d6R1 - p22R2 >= 0
d6R1 - p6R2 >= 0
x3_1_7 + p23R2 + p7R2 <= 2
x3_1_7 + p23R2 + p7R2 - 2 d7R1 >= 0
d7R1 - x3_1_7 >= 0
d7R1 - p23R2 >= 0
d7R1 - p7R2 >= 0
x3_1_8 + p24R2 + p8R2 <= 2
x3_1_8 + p24R2 + p8R2 - 2 d8R1 >= 0
d8R1 - x3_1_8 >= 0
d8R1 - p24R2 >= 0
d8R1 - p8R2 >= 0
x3_1_9 + p25R2 + p9R2 <= 2
x3_1_9 + p25R2 + p9R2 - 2 d9R1 >= 0
d9R1 - x3_1_9 >= 0
d9R1 - p25R2 >= 0
d9R1 - p9R2 >= 0
x3_1_10 + p26R2 + p10R2 <= 2
x3_1_10 + p26R2 + p10R2 - 2 d10R1 >= 0
d10R1 - x3_1_10 >= 0
d10R1 - p26R2 >= 0
d10R1 - p10R2 >= 0
x3_1_11 + p27R2 + p11R2 <= 2
x3_1_11 + p27R2 + p11R2 - 2 d11R1 >= 0
d11R1 - x3_1_11 >= 0
d11R1 - p27R2 >= 0
d11R1 - p11R2 >= 0
x3_1_12 + p28R2 + p12R2 <= 2
x3_1_12 + p28R2 + p12R2 - 2 d12R1 >= 0
d12R1 - x3_1_12 >= 0
d12R1 - p28R2 >= 0
d12R1 - p12R2 >= 0
x3_1_13 + p29R2 + p13R2 <= 2
x3_1_13 + p29R2 + p13R2 - 2 d13R1 >= 0
d13R1 - x3_1_13 >= 0
d13R1 - p29R2 >= 0
d13R1 - p13R2 >= 0
x3_1_14 + p30R2 + p14R2 <= 2
x3_1_14 + p30R2 + p14R2 - 2 d14R1 >= 0
d14R1 - x3_1_14 >= 0
d14R1 - p30R2 >= 0
d14R1 - p14R2 >= 0
x3_1_15 + p31R2 + p15R2 <= 2
x3_1_15 + p31R2 + p15R2 - 2 d15R1 >= 0
d15R1 - x3_1_15 >= 0
d15R1 - p31R2 >= 0
d15R1 - p15R2 >= 0
pro0R1 - x3_1_0 - p9R1 + x4_1_0 + pro1R1 >= 0
pro0R1 + x3_1_0 + p9R1 - x4_1_0 - pro1R1 >= 0
pro0R1 + x3_1_0 - p9R1 - x4_1_0 + pro1R1 >= 0
pro0R1 - x3_1_0 + p9R1 - x4_1_0 + pro1R1 >= 0
pro0R1 + x3_1_0 - p9R1 + x4_1_0 - pro1R1 >= 0
pro0R1 - x3_1_0 + p9R1 + x4_1_0 - pro1R1 >= 0
x3_1_0 - pro0R1 + p9R1 + x4_1_0 + pro1R1 >= 0
pro0R1 + x3_1_0 + p9R1 + x4_1_0 + pro1R1 <= 4
pro1R1 - x3_1_1 - p10R1 + x4_1_1 + pro2R1 >= 0
pro1R1 + x3_1_1 + p10R1 - x4_1_1 - pro2R1 >= 0
pro1R1 + x3_1_1 - p10R1 - x4_1_1 + pro2R1 >= 0
pro1R1 - x3_1_1 + p10R1 - x4_1_1 + pro2R1 >= 0
pro1R1 + x3_1_1 - p10R1 + x4_1_1 - pro2R1 >= 0
pro1R1 - x3_1_1 + p10R1 + x4_1_1 - pro2R1 >= 0
x3_1_1 - pro1R1 + p10R1 + x4_1_1 + pro2R1 >= 0
pro1R1 + x3_1_1 + p10R1 + x4_1_1 + pro2R1 <= 4
pro2R1 - x3_1_2 - p11R1 + x4_1_2 + pro3R1 >= 0
pro2R1 + x3_1_2 + p11R1 - x4_1_2 - pro3R1 >= 0
pro2R1 + x3_1_2 - p11R1 - x4_1_2 + pro3R1 >= 0
pro2R1 - x3_1_2 + p11R1 - x4_1_2 + pro3R1 >= 0
pro2R1 + x3_1_2 - p11R1 + x4_1_2 - pro3R1 >= 0
pro2R1 - x3_1_2 + p11R1 + x4_1_2 - pro3R1 >= 0
x3_1_2 - pro2R1 + p11R1 + x4_1_2 + pro3R1 >= 0
pro2R1 + x3_1_2 + p11R1 + x4_1_2 + pro3R1 <= 4
pro3R1 - x3_1_3 - p12R1 + x4_1_3 + pro4R1 >= 0
pro3R1 + x3_1_3 + p12R1 - x4_1_3 - pro4R1 >= 0
pro3R1 + x3_1_3 - p12R1 - x4_1_3 + pro4R1 >= 0
pro3R1 - x3_1_3 + p12R1 - x4_1_3 + pro4R1 >= 0
pro3R1 + x3_1_3 - p12R1 + x4_1_3 - pro4R1 >= 0
pro3R1 - x3_1_3 + p12R1 + x4_1_3 - pro4R1 >= 0
x3_1_3 - pro3R1 + p12R1 + x4_1_3 + pro4R1 >= 0
pro3R1 + x3_1_3 + p12R1 + x4_1_3 + pro4R1 <= 4
pro4R1 - x3_1_4 - p13R1 + x4_1_4 + pro5R1 >= 0
pro4R1 + x3_1_4 + p13R1 - x4_1_4 - pro5R1 >= 0
pro4R1 + x3_1_4 - p13R1 - x4_1_4 + pro5R1 >= 0
pro4R1 - x3_1_4 + p13R1 - x4_1_4 + pro5R1 >= 0
pro4R1 + x3_1_4 - p13R1 + x4_1_4 - pro5R1 >= 0
pro4R1 - x3_1_4 + p13R1 + x4_1_4 - pro5R1 >= 0
x3_1_4 - pro4R1 + p13R1 + x4_1_4 + pro5R1 >= 0
pro4R1 + x3_1_4 + p13R1 + x4_1_4 + pro5R1 <= 4
pro5R1 - x3_1_5 - p14R1 + x4_1_5 + pro6R1 >= 0
pro5R1 + x3_1_5 + p14R1 - x4_1_5 - pro6R1 >= 0
pro5R1 + x3_1_5 - p14R1 - x4_1_5 + pro6R1 >= 0
pro5R1 - x3_1_5 + p14R1 - x4_1_5 + pro6R1 >= 0
pro5R1 + x3_1_5 - p14R1 + x4_1_5 - pro6R1 >= 0
pro5R1 - x3_1_5 + p14R1 + x4_1_5 - pro6R1 >= 0
x3_1_5 - pro5R1 + p14R1 + x4_1_5 + pro6R1 >= 0
pro5R1 + x3_1_5 + p14R1 + x4_1_5 + pro6R1 <= 4
pro6R1 - x3_1_6 - p15R1 + x4_1_6 + pro7R1 >= 0
pro6R1 + x3_1_6 + p15R1 - x4_1_6 - pro7R1 >= 0
pro6R1 + x3_1_6 - p15R1 - x4_1_6 + pro7R1 >= 0
pro6R1 - x3_1_6 + p15R1 - x4_1_6 + pro7R1 >= 0
pro6R1 + x3_1_6 - p15R1 + x4_1_6 - pro7R1 >= 0
pro6R1 - x3_1_6 + p15R1 + x4_1_6 - pro7R1 >= 0
x3_1_6 - pro6R1 + p15R1 + x4_1_6 + pro7R1 >= 0
pro6R1 + x3_1_6 + p15R1 + x4_1_6 + pro7R1 <= 4
pro7R1 - x3_1_7 - p0R1 + x4_1_7 + pro8R1 >= 0
pro7R1 + x3_1_7 + p0R1 - x4_1_7 - pro8R1 >= 0
pro7R1 + x3_1_7 - p0R1 - x4_1_7 + pro8R1 >= 0
pro7R1 - x3_1_7 + p0R1 - x4_1_7 + pro8R1 >= 0
pro7R1 + x3_1_7 - p0R1 + x4_1_7 - pro8R1 >= 0
pro7R1 - x3_1_7 + p0R1 + x4_1_7 - pro8R1 >= 0
x3_1_7 - pro7R1 + p0R1 + x4_1_7 + pro8R1 >= 0
pro7R1 + x3_1_7 + p0R1 + x4_1_7 + pro8R1 <= 4
pro8R1 - x3_1_8 - p1R1 + x4_1_8 + pro9R1 >= 0
pro8R1 + x3_1_8 + p1R1 - x4_1_8 - pro9R1 >= 0
pro8R1 + x3_1_8 - p1R1 - x4_1_8 + pro9R1 >= 0
pro8R1 - x3_1_8 + p1R1 - x4_1_8 + pro9R1 >= 0
pro8R1 + x3_1_8 - p1R1 + x4_1_8 - pro9R1 >= 0
pro8R1 - x3_1_8 + p1R1 + x4_1_8 - pro9R1 >= 0
x3_1_8 - pro8R1 + p1R1 + x4_1_8 + pro9R1 >= 0
pro8R1 + x3_1_8 + p1R1 + x4_1_8 + pro9R1 <= 4
pro9R1 - x3_1_9 - p2R1 + x4_1_9 + pro10R1 >= 0
pro9R1 + x3_1_9 + p2R1 - x4_1_9 - pro10R1 >= 0
pro9R1 + x3_1_9 - p2R1 - x4_1_9 + pro10R1 >= 0
pro9R1 - x3_1_9 + p2R1 - x4_1_9 + pro10R1 >= 0
pro9R1 + x3_1_9 - p2R1 + x4_1_9 - pro10R1 >= 0
pro9R1 - x3_1_9 + p2R1 + x4_1_9 - pro10R1 >= 0
x3_1_9 - pro9R1 + p2R1 + x4_1_9 + pro10R1 >= 0
pro9R1 + x3_1_9 + p2R1 + x4_1_9 + pro10R1 <= 4
pro10R1 - x3_1_10 - p3R1 + x4_1_10 + pro11R1 >= 0
pro10R1 + x3_1_10 + p3R1 - x4_1_10 - pro11R1 >= 0
pro10R1 + x3_1_10 - p3R1 - x4_1_10 + pro11R1 >= 0
pro10R1 - x3_1_10 + p3R1 - x4_1_10 + pro11R1 >= 0
pro10R1 + x3_1_10 - p3R1 + x4_1_10 - pro11R1 >= 0
pro10R1 - x3_1_10 + p3R1 + x4_1_10 - pro11R1 >= 0
x3_1_10 - pro10R1 + p3R1 + x4_1_10 + pro11R1 >= 0
pro10R1 + x3_1_10 + p3R1 + x4_1_10 + pro11R1 <= 4
pro11R1 - x3_1_11 - p4R1 + x4_1_11 + pro12R1 >= 0
pro11R1 + x3_1_11 + p4R1 - x4_1_11 - pro12R1 >= 0
pro11R1 + x3_1_11 - p4R1 - x4_1_11 + pro12R1 >= 0
pro11R1 - x3_1_11 + p4R1 - x4_1_11 + pro12R1 >= 0
pro11R1 + x3_1_11 - p4R1 + x4_1_11 - pro12R1 >= 0
pro11R1 - x3_1_11 + p4R1 + x4_1_11 - pro12R1 >= 0
x3_1_11 - pro11R1 + p4R1 + x4_1_11 + pro12R1 >= 0
pro11R1 + x3_1_11 + p4R1 + x4_1_11 + pro12R1 <= 4
pro12R1 - x3_1_12 - p5R1 + x4_1_12 + pro13R1 >= 0
pro12R1 + x3_1_12 + p5R1 - x4_1_12 - pro13R1 >= 0
pro12R1 + x3_1_12 - p5R1 - x4_1_12 + pro13R1 >= 0
pro12R1 - x3_1_12 + p5R1 - x4_1_12 + pro13R1 >= 0
pro12R1 + x3_1_12 - p5R1 + x4_1_12 - pro13R1 >= 0
pro12R1 - x3_1_12 + p5R1 + x4_1_12 - pro13R1 >= 0
x3_1_12 - pro12R1 + p5R1 + x4_1_12 + pro13R1 >= 0
pro12R1 + x3_1_12 + p5R1 + x4_1_12 + pro13R1 <= 4
pro13R1 - x3_1_13 - p6R1 + x4_1_13 + pro14R1 >= 0
pro13R1 + x3_1_13 + p6R1 - x4_1_13 - pro14R1 >= 0
pro13R1 + x3_1_13 - p6R1 - x4_1_13 + pro14R1 >= 0
pro13R1 - x3_1_13 + p6R1 - x4_1_13 + pro14R1 >= 0
pro13R1 + x3_1_13 - p6R1 + x4_1_13 - pro14R1 >= 0
pro13R1 - x3_1_13 + p6R1 + x4_1_13 - pro14R1 >= 0
x3_1_13 - pro13R1 + p6R1 + x4_1_13 + pro14R1 >= 0
pro13R1 + x3_1_13 + p6R1 + x4_1_13 + pro14R1 <= 4
pro14R1 - x3_1_14 - p7R1 + x4_1_14 + pro15R1 >= 0
pro14R1 + x3_1_14 + p7R1 - x4_1_14 - pro15R1 >= 0
pro14R1 + x3_1_14 - p7R1 - x4_1_14 + pro15R1 >= 0
pro14R1 - x3_1_14 + p7R1 - x4_1_14 + pro15R1 >= 0
pro14R1 + x3_1_14 - p7R1 + x4_1_14 - pro15R1 >= 0
pro14R1 - x3_1_14 + p7R1 + x4_1_14 - pro15R1 >= 0
x3_1_14 - pro14R1 + p7R1 + x4_1_14 + pro15R1 >= 0
pro14R1 + x3_1_14 + p7R1 + x4_1_14 + pro15R1 <= 4
pro15R1 - x3_1_15 - p8R1 + x4_1_15 + pro16R1 >= 0
pro15R1 + x3_1_15 + p8R1 - x4_1_15 - pro16R1 >= 0
pro15R1 + x3_1_15 - p8R1 - x4_1_15 + pro16R1 >= 0
pro15R1 - x3_1_15 + p8R1 - x4_1_15 + pro16R1 >= 0
pro15R1 + x3_1_15 - p8R1 + x4_1_15 - pro16R1 >= 0
pro15R1 - x3_1_15 + p8R1 + x4_1_15 - pro16R1 >= 0
x3_1_15 - pro15R1 + p8R1 + x4_1_15 + pro16R1 >= 0
pro15R1 + x3_1_15 + p8R1 + x4_1_15 + pro16R1 <= 4
p16R2 + p30R3 + x4_2_0 <= 2
p16R2 + p30R3 + x4_2_0 - 2 d16R2 >= 0
d16R2 - p16R2 >= 0
d16R2 - p30R3 >= 0
d16R2 - x4_2_0 >= 0
p17R2 + p31R3 + x4_2_1 <= 2
p17R2 + p31R3 + x4_2_1 - 2 d17R2 >= 0
d17R2 - p17R2 >= 0
d17R2 - p31R3 >= 0
d17R2 - x4_2_1 >= 0
p18R2 + p16R3 + x4_2_2 <= 2
p18R2 + p16R3 + x4_2_2 - 2 d18R2 >= 0
d18R2 - p18R2 >= 0
d18R2 - p16R3 >= 0
d18R2 - x4_2_2 >= 0
p19R2 + p17R3 + x4_2_3 <= 2
p19R2 + p17R3 + x4_2_3 - 2 d19R2 >= 0
d19R2 - p19R2 >= 0
d19R2 - p17R3 >= 0
d19R2 - x4_2_3 >= 0
p20R2 + p18R3 + x4_2_4 <= 2
p20R2 + p18R3 + x4_2_4 - 2 d20R2 >= 0
d20R2 - p20R2 >= 0
d20R2 - p18R3 >= 0
d20R2 - x4_2_4 >= 0
p21R2 + p19R3 + x4_2_5 <= 2
p21R2 + p19R3 + x4_2_5 - 2 d21R2 >= 0
d21R2 - p21R2 >= 0
d21R2 - p19R3 >= 0
d21R2 - x4_2_5 >= 0
p22R2 + p20R3 + x4_2_6 <= 2
p22R2 + p20R3 + x4_2_6 - 2 d22R2 >= 0
d22R2 - p22R2 >= 0
d22R2 - p20R3 >= 0
d22R2 - x4_2_6 >= 0
p23R2 + p21R3 + x4_2_7 <= 2
p23R2 + p21R3 + x4_2_7 - 2 d23R2 >= 0
d23R2 - p23R2 >= 0
d23R2 - p21R3 >= 0
d23R2 - x4_2_7 >= 0
p24R2 + p22R3 + x4_2_8 <= 2
p24R2 + p22R3 + x4_2_8 - 2 d24R2 >= 0
d24R2 - p24R2 >= 0
d24R2 - p22R3 >= 0
d24R2 - x4_2_8 >= 0
p25R2 + p23R3 + x4_2_9 <= 2
p25R2 + p23R3 + x4_2_9 - 2 d25R2 >= 0
d25R2 - p25R2 >= 0
d25R2 - p23R3 >= 0
d25R2 - x4_2_9 >= 0
p26R2 + p24R3 + x4_2_10 <= 2
p26R2 + p24R3 + x4_2_10 - 2 d26R2 >= 0
d26R2 - p26R2 >= 0
d26R2 - p24R3 >= 0
d26R2 - x4_2_10 >= 0
p27R2 + p25R3 + x4_2_11 <= 2
p27R2 + p25R3 + x4_2_11 - 2 d27R2 >= 0
d27R2 - p27R2 >= 0
d27R2 - p25R3 >= 0
d27R2 - x4_2_11 >= 0
p28R2 + p26R3 + x4_2_12 <= 2
p28R2 + p26R3 + x4_2_12 - 2 d28R2 >= 0
d28R2 - p28R2 >= 0
d28R2 - p26R3 >= 0
d28R2 - x4_2_12 >= 0
p29R2 + p27R3 + x4_2_13 <= 2
p29R2 + p27R3 + x4_2_13 - 2 d29R2 >= 0
d29R2 - p29R2 >= 0
d29R2 - p27R3 >= 0
d29R2 - x4_2_13 >= 0
p30R2 + p28R3 + x4_2_14 <= 2
p30R2 + p28R3 + x4_2_14 - 2 d30R2 >= 0
d30R2 - p30R2 >= 0
d30R2 - p28R3 >= 0
d30R2 - x4_2_14 >= 0
p31R2 + p29R3 + x4_2_15 <= 2
p31R2 + p29R3 + x4_2_15 - 2 d31R2 >= 0
d31R2 - p31R2 >= 0
d31R2 - p29R3 >= 0
d31R2 - x4_2_15 >= 0
x3_2_0 + p16R3 + p0R3 <= 2
x3_2_0 + p16R3 + p0R3 - 2 d0R2 >= 0
d0R2 - x3_2_0 >= 0
d0R2 - p16R3 >= 0
d0R2 - p0R3 >= 0
x3_2_1 + p17R3 + p1R3 <= 2
x3_2_1 + p17R3 + p1R3 - 2 d1R2 >= 0
d1R2 - x3_2_1 >= 0
d1R2 - p17R3 >= 0
d1R2 - p1R3 >= 0
x3_2_2 + p18R3 + p2R3 <= 2
x3_2_2 + p18R3 + p2R3 - 2 d2R2 >= 0
d2R2 - x3_2_2 >= 0
d2R2 - p18R3 >= 0
d2R2 - p2R3 >= 0
x3_2_3 + p19R3 + p3R3 <= 2
x3_2_3 + p19R3 + p3R3 - 2 d3R2 >= 0
d3R2 - x3_2_3 >= 0
d3R2 - p19R3 >= 0
d3R2 - p3R3 >= 0
x3_2_4 + p20R3 + p4R3 <= 2
x3_2_4 + p20R3 + p4R3 - 2 d4R2 >= 0
d4R2 - x3_2_4 >= 0
d4R2 - p20R3 >= 0
d4R2 - p4R3 >= 0
x3_2_5 + p21R3 + p5R3 <= 2
x3_2_5 + p21R3 + p5R3 - 2 d5R2 >= 0
d5R2 - x3_2_5 >= 0
d5R2 - p21R3 >= 0
d5R2 - p5R3 >= 0
x3_2_6 + p22R3 + p6R3 <= 2
x3_2_6 + p22R3 + p6R3 - 2 d6R2 >= 0
d6R2 - x3_2_6 >= 0
d6R2 - p22R3 >= 0
d6R2 - p6R3 >= 0
x3_2_7 + p23R3 + p7R3 <= 2
x3_2_7 + p23R3 + p7R3 - 2 d7R2 >= 0
d7R2 - x3_2_7 >= 0
d7R2 - p23R3 >= 0
d7R2 - p7R3 >= 0
x3_2_8 + p24R3 + p8R3 <= 2
x3_2_8 + p24R3 + p8R3 - 2 d8R2 >= 0
d8R2 - x3_2_8 >= 0
d8R2 - p24R3 >= 0
d8R2 - p8R3 >= 0
x3_2_9 + p25R3 + p9R3 <= 2
x3_2_9 + p25R3 + p9R3 - 2 d9R2 >= 0
d9R2 - x3_2_9 >= 0
d9R2 - p25R3 >= 0
d9R2 - p9R3 >= 0
x3_2_10 + p26R3 + p10R3 <= 2
x3_2_10 + p26R3 + p10R3 - 2 d10R2 >= 0
d10R2 - x3_2_10 >= 0
d10R2 - p26R3 >= 0
d10R2 - p10R3 >= 0
x3_2_11 + p27R3 + p11R3 <= 2
x3_2_11 + p27R3 + p11R3 - 2 d11R2 >= 0
d11R2 - x3_2_11 >= 0
d11R2 - p27R3 >= 0
d11R2 - p11R3 >= 0
x3_2_12 + p28R3 + p12R3 <= 2
x3_2_12 + p28R3 + p12R3 - 2 d12R2 >= 0
d12R2 - x3_2_12 >= 0
d12R2 - p28R3 >= 0
d12R2 - p12R3 >= 0
x3_2_13 + p29R3 + p13R3 <= 2
x3_2_13 + p29R3 + p13R3 - 2 d13R2 >= 0
d13R2 - x3_2_13 >= 0
d13R2 - p29R3 >= 0
d13R2 - p13R3 >= 0
x3_2_14 + p30R3 + p14R3 <= 2
x3_2_14 + p30R3 + p14R3 - 2 d14R2 >= 0
d14R2 - x3_2_14 >= 0
d14R2 - p30R3 >= 0
d14R2 - p14R3 >= 0
x3_2_15 + p31R3 + p15R3 <= 2
x3_2_15 + p31R3 + p15R3 - 2 d15R2 >= 0
d15R2 - x3_2_15 >= 0
d15R2 - p31R3 >= 0
d15R2 - p15R3 >= 0
pro0R2 - x3_2_0 - p9R2 + x4_2_0 + pro1R2 >= 0
pro0R2 + x3_2_0 + p9R2 - x4_2_0 - pro1R2 >= 0
pro0R2 + x3_2_0 - p9R2 - x4_2_0 + pro1R2 >= 0
pro0R2 - x3_2_0 + p9R2 - x4_2_0 + pro1R2 >= 0
pro0R2 + x3_2_0 - p9R2 + x4_2_0 - pro1R2 >= 0
pro0R2 - x3_2_0 + p9R2 + x4_2_0 - pro1R2 >= 0
x3_2_0 - pro0R2 + p9R2 + x4_2_0 + pro1R2 >= 0
pro0R2 + x3_2_0 + p9R2 + x4_2_0 + pro1R2 <= 4
pro1R2 - x3_2_1 - p10R2 + x4_2_1 + pro2R2 >= 0
pro1R2 + x3_2_1 + p10R2 - x4_2_1 - pro2R2 >= 0
pro1R2 + x3_2_1 - p10R2 - x4_2_1 + pro2R2 >= 0
pro1R2 - x3_2_1 + p10R2 - x4_2_1 + pro2R2 >= 0
pro1R2 + x3_2_1 - p10R2 + x4_2_1 - pro2R2 >= 0
pro1R2 - x3_2_1 + p10R2 + x4_2_1 - pro2R2 >= 0
x3_2_1 - pro1R2 + p10R2 + x4_2_1 + pro2R2 >= 0
pro1R2 + x3_2_1 + p10R2 + x4_2_1 + pro2R2 <= 4
pro2R2 - x3_2_2 - p11R2 + x4_2_2 + pro3R2 >= 0
pro2R2 + x3_2_2 + p11R2 - x4_2_2 - pro3R2 >= 0
pro2R2 + x3_2_2 - p11R2 - x4_2_2 + pro3R2 >= 0
pro2R2 - x3_2_2 + p11R2 - x4_2_2 + pro3R2 >= 0
pro2R2 + x3_2_2 - p11R2 + x4_2_2 - pro3R2 >= 0
pro2R2 - x3_2_2 + p11R2 + x4_2_2 - pro3R2 >= 0
x3_2_2 - pro2R2 + p11R2 + x4_2_2 + pro3R2 >= 0
pro2R2 + x3_2_2 + p11R2 + x4_2_2 + pro3R2 <= 4
pro3R2 - x3_2_3 - p12R2 + x4_2_3 + pro4R2 >= 0
pro3R2 + x3_2_3 + p12R2 - x4_2_3 - pro4R2 >= 0
pro3R2 + x3_2_3 - p12R2 - x4_2_3 + pro4R2 >= 0
pro3R2 - x3_2_3 + p12R2 - x4_2_3 + pro4R2 >= 0
pro3R2 + x3_2_3 - p12R2 + x4_2_3 - pro4R2 >= 0
pro3R2 - x3_2_3 + p12R2 + x4_2_3 - pro4R2 >= 0
x3_2_3 - pro3R2 + p12R2 + x4_2_3 + pro4R2 >= 0
pro3R2 + x3_2_3 + p12R2 + x4_2_3 + pro4R2 <= 4
pro4R2 - x3_2_4 - p13R2 + x4_2_4 + pro5R2 >= 0
pro4R2 + x3_2_4 + p13R2 - x4_2_4 - pro5R2 >= 0
pro4R2 + x3_2_4 - p13R2 - x4_2_4 + pro5R2 >= 0
pro4R2 - x3_2_4 + p13R2 - x4_2_4 + pro5R2 >= 0
pro4R2 + x3_2_4 - p13R2 + x4_2_4 - pro5R2 >= 0
pro4R2 - x3_2_4 + p13R2 + x4_2_4 - pro5R2 >= 0
x3_2_4 - pro4R2 + p13R2 + x4_2_4 + pro5R2 >= 0
pro4R2 + x3_2_4 + p13R2 + x4_2_4 + pro5R2 <= 4
pro5R2 - x3_2_5 - p14R2 + x4_2_5 + pro6R2 >= 0
pro5R2 + x3_2_5 + p14R2 - x4_2_5 - pro6R2 >= 0
pro5R2 + x3_2_5 - p14R2 - x4_2_5 + pro6R2 >= 0
pro5R2 - x3_2_5 + p14R2 - x4_2_5 + pro6R2 >= 0
pro5R2 + x3_2_5 - p14R2 + x4_2_5 - pro6R2 >= 0
pro5R2 - x3_2_5 + p14R2 + x4_2_5 - pro6R2 >= 0
x3_2_5 - pro5R2 + p14R2 + x4_2_5 + pro6R2 >= 0
pro5R2 + x3_2_5 + p14R2 + x4_2_5 + pro6R2 <= 4
pro6R2 - x3_2_6 - p15R2 + x4_2_6 + pro7R2 >= 0
pro6R2 + x3_2_6 + p15R2 - x4_2_6 - pro7R2 >= 0
pro6R2 + x3_2_6 - p15R2 - x4_2_6 + pro7R2 >= 0
pro6R2 - x3_2_6 + p15R2 - x4_2_6 + pro7R2 >= 0
pro6R2 + x3_2_6 - p15R2 + x4_2_6 - pro7R2 >= 0
pro6R2 - x3_2_6 + p15R2 + x4_2_6 - pro7R2 >= 0
x3_2_6 - pro6R2 + p15R2 + x4_2_6 + pro7R2 >= 0
pro6R2 + x3_2_6 + p15R2 + x4_2_6 + pro7R2 <= 4
pro7R2 - x3_2_7 - p0R2 + x4_2_7 + pro8R2 >= 0
pro7R2 + x3_2_7 + p0R2 - x4_2_7 - pro8R2 >= 0
pro7R2 + x3_2_7 - p0R2 - x4_2_7 + pro8R2 >= 0
pro7R2 - x3_2_7 + p0R2 - x4_2_7 + pro8R2 >= 0
pro7R2 + x3_2_7 - p0R2 + x4_2_7 - pro8R2 >= 0
pro7R2 - x3_2_7 + p0R2 + x4_2_7 - pro8R2 >= 0
x3_2_7 - pro7R2 + p0R2 + x4_2_7 + pro8R2 >= 0
pro7R2 + x3_2_7 + p0R2 + x4_2_7 + pro8R2 <= 4
pro8R2 - x3_2_8 - p1R2 + x4_2_8 + pro9R2 >= 0
pro8R2 + x3_2_8 + p1R2 - x4_2_8 - pro9R2 >= 0
pro8R2 + x3_2_8 - p1R2 - x4_2_8 + pro9R2 >= 0
pro8R2 - x3_2_8 + p1R2 - x4_2_8 + pro9R2 >= 0
pro8R2 + x3_2_8 - p1R2 + x4_2_8 - pro9R2 >= 0
pro8R2 - x3_2_8 + p1R2 + x4_2_8 - pro9R2 >= 0
x3_2_8 - pro8R2 + p1R2 + x4_2_8 + pro9R2 >= 0
pro8R2 + x3_2_8 + p1R2 + x4_2_8 + pro9R2 <= 4
pro9R2 - x3_2_9 - p2R2 + x4_2_9 + pro10R2 >= 0
pro9R2 + x3_2_9 + p2R2 - x4_2_9 - pro10R2 >= 0
pro9R2 + x3_2_9 - p2R2 - x4_2_9 + pro10R2 >= 0
pro9R2 - x3_2_9 + p2R2 - x4_2_9 + pro10R2 >= 0
pro9R2 + x3_2_9 - p2R2 + x4_2_9 - pro10R2 >= 0
pro9R2 - x3_2_9 + p2R2 + x4_2_9 - pro10R2 >= 0
x3_2_9 - pro9R2 + p2R2 + x4_2_9 + pro10R2 >= 0
pro9R2 + x3_2_9 + p2R2 + x4_2_9 + pro10R2 <= 4
pro10R2 - x3_2_10 - p3R2 + x4_2_10 + pro11R2 >= 0
pro10R2 + x3_2_10 + p3R2 - x4_2_10 - pro11R2 >= 0
pro10R2 + x3_2_10 - p3R2 - x4_2_10 + pro11R2 >= 0
pro10R2 - x3_2_10 + p3R2 - x4_2_10 + pro11R2 >= 0
pro10R2 + x3_2_10 - p3R2 + x4_2_10 - pro11R2 >= 0
pro10R2 - x3_2_10 + p3R2 + x4_2_10 - pro11R2 >= 0
x3_2_10 - pro10R2 + p3R2 + x4_2_10 + pro11R2 >= 0
pro10R2 + x3_2_10 + p3R2 + x4_2_10 + pro11R2 <= 4
pro11R2 - x3_2_11 - p4R2 + x4_2_11 + pro12R2 >= 0
pro11R2 + x3_2_11 + p4R2 - x4_2_11 - pro12R2 >= 0
pro11R2 + x3_2_11 - p4R2 - x4_2_11 + pro12R2 >= 0
pro11R2 - x3_2_11 + p4R2 - x4_2_11 + pro12R2 >= 0
pro11R2 + x3_2_11 - p4R2 + x4_2_11 - pro12R2 >= 0
pro11R2 - x3_2_11 + p4R2 + x4_2_11 - pro12R2 >= 0
x3_2_11 - pro11R2 + p4R2 + x4_2_11 + pro12R2 >= 0
pro11R2 + x3_2_11 + p4R2 + x4_2_11 + pro12R2 <= 4
pro12R2 - x3_2_12 - p5R2 + x4_2_12 + pro13R2 >= 0
pro12R2 + x3_2_12 + p5R2 - x4_2_12 - pro13R2 >= 0
pro12R2 + x3_2_12 - p5R2 - x4_2_12 + pro13R2 >= 0
pro12R2 - x3_2_12 + p5R2 - x4_2_12 + pro13R2 >= 0
pro12R2 + x3_2_12 - p5R2 + x4_2_12 - pro13R2 >= 0
pro12R2 - x3_2_12 + p5R2 + x4_2_12 - pro13R2 >= 0
x3_2_12 - pro12R2 + p5R2 + x4_2_12 + pro13R2 >= 0
pro12R2 + x3_2_12 + p5R2 + x4_2_12 + pro13R2 <= 4
pro13R2 - x3_2_13 - p6R2 + x4_2_13 + pro14R2 >= 0
pro13R2 + x3_2_13 + p6R2 - x4_2_13 - pro14R2 >= 0
pro13R2 + x3_2_13 - p6R2 - x4_2_13 + pro14R2 >= 0
pro13R2 - x3_2_13 + p6R2 - x4_2_13 + pro14R2 >= 0
pro13R2 + x3_2_13 - p6R2 + x4_2_13 - pro14R2 >= 0
pro13R2 - x3_2_13 + p6R2 + x4_2_13 - pro14R2 >= 0
x3_2_13 - pro13R2 + p6R2 + x4_2_13 + pro14R2 >= 0
pro13R2 + x3_2_13 + p6R2 + x4_2_13 + pro14R2 <= 4
pro14R2 - x3_2_14 - p7R2 + x4_2_14 + pro15R2 >= 0
pro14R2 + x3_2_14 + p7R2 - x4_2_14 - pro15R2 >= 0
pro14R2 + x3_2_14 - p7R2 - x4_2_14 + pro15R2 >= 0
pro14R2 - x3_2_14 + p7R2 - x4_2_14 + pro15R2 >= 0
pro14R2 + x3_2_14 - p7R2 + x4_2_14 - pro15R2 >= 0
pro14R2 - x3_2_14 + p7R2 + x4_2_14 - pro15R2 >= 0
x3_2_14 - pro14R2 + p7R2 + x4_2_14 + pro15R2 >= 0
pro14R2 + x3_2_14 + p7R2 + x4_2_14 + pro15R2 <= 4
pro15R2 - x3_2_15 - p8R2 + x4_2_15 + pro16R2 >= 0
pro15R2 + x3_2_15 + p8R2 - x4_2_15 - pro16R2 >= 0
pro15R2 + x3_2_15 - p8R2 - x4_2_15 + pro16R2 >= 0
pro15R2 - x3_2_15 + p8R2 - x4_2_15 + pro16R2 >= 0
pro15R2 + x3_2_15 - p8R2 + x4_2_15 - pro16R2 >= 0
pro15R2 - x3_2_15 + p8R2 + x4_2_15 - pro16R2 >= 0
x3_2_15 - pro15R2 + p8R2 + x4_2_15 + pro16R2 >= 0
pro15R2 + x3_2_15 + p8R2 + x4_2_15 + pro16R2 <= 4
p16R3 + p30R4 + x4_3_0 <= 2
p16R3 + p30R4 + x4_3_0 - 2 d16R3 >= 0
d16R3 - p16R3 >= 0
d16R3 - p30R4 >= 0
d16R3 - x4_3_0 >= 0
p17R3 + p31R4 + x4_3_1 <= 2
p17R3 + p31R4 + x4_3_1 - 2 d17R3 >= 0
d17R3 - p17R3 >= 0
d17R3 - p31R4 >= 0
d17R3 - x4_3_1 >= 0
p18R3 + p16R4 + x4_3_2 <= 2
p18R3 + p16R4 + x4_3_2 - 2 d18R3 >= 0
d18R3 - p18R3 >= 0
d18R3 - p16R4 >= 0
d18R3 - x4_3_2 >= 0
p19R3 + p17R4 + x4_3_3 <= 2
p19R3 + p17R4 + x4_3_3 - 2 d19R3 >= 0
d19R3 - p19R3 >= 0
d19R3 - p17R4 >= 0
d19R3 - x4_3_3 >= 0
p20R3 + p18R4 + x4_3_4 <= 2
p20R3 + p18R4 + x4_3_4 - 2 d20R3 >= 0
d20R3 - p20R3 >= 0
d20R3 - p18R4 >= 0
d20R3 - x4_3_4 >= 0
p21R3 + p19R4 + x4_3_5 <= 2
p21R3 + p19R4 + x4_3_5 - 2 d21R3 >= 0
d21R3 - p21R3 >= 0
d21R3 - p19R4 >= 0
d21R3 - x4_3_5 >= 0
p22R3 + p20R4 + x4_3_6 <= 2
p22R3 + p20R4 + x4_3_6 - 2 d22R3 >= 0
d22R3 - p22R3 >= 0
d22R3 - p20R4 >= 0
d22R3 - x4_3_6 >= 0
p23R3 + p21R4 + x4_3_7 <= 2
p23R3 + p21R4 + x4_3_7 - 2 d23R3 >= 0
d23R3 - p23R3 >= 0
d23R3 - p21R4 >= 0
d23R3 - x4_3_7 >= 0
p24R3 + p22R4 + x4_3_8 <= 2
p24R3 + p22R4 + x4_3_8 - 2 d24R3 >= 0
d24R3 - p24R3 >= 0
d24R3 - p22R4 >= 0
d24R3 - x4_3_8 >= 0
p25R3 + p23R4 + x4_3_9 <= 2
p25R3 + p23R4 + x4_3_9 - 2 d25R3 >= 0
d25R3 - p25R3 >= 0
d25R3 - p23R4 >= 0
d25R3 - x4_3_9 >= 0
p26R3 + p24R4 + x4_3_10 <= 2
p26R3 + p24R4 + x4_3_10 - 2 d26R3 >= 0
d26R3 - p26R3 >= 0
d26R3 - p24R4 >= 0
d26R3 - x4_3_10 >= 0
p27R3 + p25R4 + x4_3_11 <= 2
p27R3 + p25R4 + x4_3_11 - 2 d27R3 >= 0
d27R3 - p27R3 >= 0
d27R3 - p25R4 >= 0
d27R3 - x4_3_11 >= 0
p28R3 + p26R4 + x4_3_12 <= 2
p28R3 + p26R4 + x4_3_12 - 2 d28R3 >= 0
d28R3 - p28R3 >= 0
d28R3 - p26R4 >= 0
d28R3 - x4_3_12 >= 0
p29R3 + p27R4 + x4_3_13 <= 2
p29R3 + p27R4 + x4_3_13 - 2 d29R3 >= 0
d29R3 - p29R3 >= 0
d29R3 - p27R4 >= 0
d29R3 - x4_3_13 >= 0
p30R3 + p28R4 + x4_3_14 <= 2
p30R3 + p28R4 + x4_3_14 - 2 d30R3 >= 0
d30R3 - p30R3 >= 0
d30R3 - p28R4 >= 0
d30R3 - x4_3_14 >= 0
p31R3 + p29R4 + x4_3_15 <= 2
p31R3 + p29R4 + x4_3_15 - 2 d31R3 >= 0
d31R3 - p31R3 >= 0
d31R3 - p29R4 >= 0
d31R3 - x4_3_15 >= 0
x3_3_0 + p16R4 + p0R4 <= 2
x3_3_0 + p16R4 + p0R4 - 2 d0R3 >= 0
d0R3 - x3_3_0 >= 0
d0R3 - p16R4 >= 0
d0R3 - p0R4 >= 0
x3_3_1 + p17R4 + p1R4 <= 2
x3_3_1 + p17R4 + p1R4 - 2 d1R3 >= 0
d1R3 - x3_3_1 >= 0
d1R3 - p17R4 >= 0
d1R3 - p1R4 >= 0
x3_3_2 + p18R4 + p2R4 <= 2
x3_3_2 + p18R4 + p2R4 - 2 d2R3 >= 0
d2R3 - x3_3_2 >= 0
d2R3 - p18R4 >= 0
d2R3 - p2R4 >= 0
x3_3_3 + p19R4 + p3R4 <= 2
x3_3_3 + p19R4 + p3R4 - 2 d3R3 >= 0
d3R3 - x3_3_3 >= 0
d3R3 - p19R4 >= 0
d3R3 - p3R4 >= 0
x3_3_4 + p20R4 + p4R4 <= 2
x3_3_4 + p20R4 + p4R4 - 2 d4R3 >= 0
d4R3 - x3_3_4 >= 0
d4R3 - p20R4 >= 0
d4R3 - p4R4 >= 0
x3_3_5 + p21R4 + p5R4 <= 2
x3_3_5 + p21R4 + p5R4 - 2 d5R3 >= 0
d5R3 - x3_3_5 >= 0
d5R3 - p21R4 >= 0
d5R3 - p5R4 >= 0
x3_3_6 + p22R4 + p6R4 <= 2
x3_3_6 + p22R4 + p6R4 - 2 d6R3 >= 0
d6R3 - x3_3_6 >= 0
d6R3 - p22R4 >= 0
d6R3 - p6R4 >= 0
x3_3_7 + p23R4 + p7R4 <= 2
x3_3_7 + p23R4 + p7R4 - 2 d7R3 >= 0
d7R3 - x3_3_7 >= 0
d7R3 - p23R4 >= 0
d7R3 - p7R4 >= 0
x3_3_8 + p24R4 + p8R4 <= 2
x3_3_8 + p24R4 + p8R4 - 2 d8R3 >= 0
d8R3 - x3_3_8 >= 0
d8R3 - p24R4 >= 0
d8R3 - p8R4 >= 0
x3_3_9 + p25R4 + p9R4 <= 2
x3_3_9 + p25R4 + p9R4 - 2 d9R3 >= 0
d9R3 - x3_3_9 >= 0
d9R3 - p25R4 >= 0
d9R3 - p9R4 >= 0
x3_3_10 + p26R4 + p10R4 <= 2
x3_3_10 + p26R4 + p10R4 - 2 d10R3 >= 0
d10R3 - x3_3_10 >= 0
d10R3 - p26R4 >= 0
d10R3 - p10R4 >= 0
x3_3_11 + p27R4 + p11R4 <= 2
x3_3_11 + p27R4 + p11R4 - 2 d11R3 >= 0
d11R3 - x3_3_11 >= 0
d11R3 - p27R4 >= 0
d11R3 - p11R4 >= 0
x3_3_12 + p28R4 + p12R4 <= 2
x3_3_12 + p28R4 + p12R4 - 2 d12R3 >= 0
d12R3 - x3_3_12 >= 0
d12R3 - p28R4 >= 0
d12R3 - p12R4 >= 0
x3_3_13 + p29R4 + p13R4 <= 2
x3_3_13 + p29R4 + p13R4 - 2 d13R3 >= 0
d13R3 - x3_3_13 >= 0
d13R3 - p29R4 >= 0
d13R3 - p13R4 >= 0
x3_3_14 + p30R4 + p14R4 <= 2
x3_3_14 + p30R4 + p14R4 - 2 d14R3 >= 0
d14R3 - x3_3_14 >= 0
d14R3 - p30R4 >= 0
d14R3 - p14R4 >= 0
x3_3_15 + p31R4 + p15R4 <= 2
x3_3_15 + p31R4 + p15R4 - 2 d15R3 >= 0
d15R3 - x3_3_15 >= 0
d15R3 - p31R4 >= 0
d15R3 - p15R4 >= 0
pro0R3 - x3_3_0 - p9R3 + x4_3_0 + pro1R3 >= 0
pro0R3 + x3_3_0 + p9R3 - x4_3_0 - pro1R3 >= 0
pro0R3 + x3_3_0 - p9R3 - x4_3_0 + pro1R3 >= 0
pro0R3 - x3_3_0 + p9R3 - x4_3_0 + pro1R3 >= 0
pro0R3 + x3_3_0 - p9R3 + x4_3_0 - pro1R3 >= 0
pro0R3 - x3_3_0 + p9R3 + x4_3_0 - pro1R3 >= 0
x3_3_0 - pro0R3 + p9R3 + x4_3_0 + pro1R3 >= 0
pro0R3 + x3_3_0 + p9R3 + x4_3_0 + pro1R3 <= 4
pro1R3 - x3_3_1 - p10R3 + x4_3_1 + pro2R3 >= 0
pro1R3 + x3_3_1 + p10R3 - x4_3_1 - pro2R3 >= 0
pro1R3 + x3_3_1 - p10R3 - x4_3_1 + pro2R3 >= 0
pro1R3 - x3_3_1 + p10R3 - x4_3_1 + pro2R3 >= 0
pro1R3 + x3_3_1 - p10R3 + x4_3_1 - pro2R3 >= 0
pro1R3 - x3_3_1 + p10R3 + x4_3_1 - pro2R3 >= 0
x3_3_1 - pro1R3 + p10R3 + x4_3_1 + pro2R3 >= 0
pro1R3 + x3_3_1 + p10R3 + x4_3_1 + pro2R3 <= 4
pro2R3 - x3_3_2 - p11R3 + x4_3_2 + pro3R3 >= 0
pro2R3 + x3_3_2 + p11R3 - x4_3_2 - pro3R3 >= 0
pro2R3 + x3_3_2 - p11R3 - x4_3_2 + pro3R3 >= 0
pro2R3 - x3_3_2 + p11R3 - x4_3_2 + pro3R3 >= 0
pro2R3 + x3_3_2 - p11R3 + x4_3_2 - pro3R3 >= 0
pro2R3 - x3_3_2 + p11R3 + x4_3_2 - pro3R3 >= 0
x3_3_2 - pro2R3 + p11R3 + x4_3_2 + pro3R3 >= 0
pro2R3 + x3_3_2 + p11R3 + x4_3_2 + pro3R3 <= 4
pro3R3 - x3_3_3 - p12R3 + x4_3_3 + pro4R3 >= 0
pro3R3 + x3_3_3 + p12R3 - x4_3_3 - pro4R3 >= 0
pro3R3 + x3_3_3 - p12R3 - x4_3_3 + pro4R3 >= 0
pro3R3 - x3_3_3 + p12R3 - x4_3_3 + pro4R3 >= 0
pro3R3 + x3_3_3 - p12R3 + x4_3_3 - pro4R3 >= 0
pro3R3 - x3_3_3 + p12R3 + x4_3_3 - pro4R3 >= 0
x3_3_3 - pro3R3 + p12R3 + x4_3_3 + pro4R3 >= 0
pro3R3 + x3_3_3 + p12R3 + x4_3_3 + pro4R3 <= 4
pro4R3 - x3_3_4 - p13R3 + x4_3_4 + pro5R3 >= 0
pro4R3 + x3_3_4 + p13R3 - x4_3_4 - pro5R3 >= 0
pro4R3 + x3_3_4 - p13R3 - x4_3_4 + pro5R3 >= 0
pro4R3 - x3_3_4 + p13R3 - x4_3_4 + pro5R3 >= 0
pro4R3 + x3_3_4 - p13R3 + x4_3_4 - pro5R3 >= 0
pro4R3 - x3_3_4 + p13R3 + x4_3_4 - pro5R3 >= 0
x3_3_4 - pro4R3 + p13R3 + x4_3_4 + pro5R3 >= 0
pro4R3 + x3_3_4 + p13R3 + x4_3_4 + pro5R3 <= 4
pro5R3 - x3_3_5 - p14R3 + x4_3_5 + pro6R3 >= 0
pro5R3 + x3_3_5 + p14R3 - x4_3_5 - pro6R3 >= 0
pro5R3 + x3_3_5 - p14R3 - x4_3_5 + pro6R3 >= 0
pro5R3 - x3_3_5 + p14R3 - x4_3_5 + pro6R3 >= 0
pro5R3 + x3_3_5 - p14R3 + x4_3_5 - pro6R3 >= 0
pro5R3 - x3_3_5 + p14R3 + x4_3_5 - pro6R3 >= 0
x3_3_5 - pro5R3 + p14R3 + x4_3_5 + pro6R3 >= 0
pro5R3 + x3_3_5 + p14R3 + x4_3_5 + pro6R3 <= 4
pro6R3 - x3_3_6 - p15R3 + x4_3_6 + pro7R3 >= 0
pro6R3 + x3_3_6 + p15R3 - x4_3_6 - pro7R3 >= 0
pro6R3 + x3_3_6 - p15R3 - x4_3_6 + pro7R3 >= 0
pro6R3 - x3_3_6 + p15R3 - x4_3_6 + pro7R3 >= 0
pro6R3 + x3_3_6 - p15R3 + x4_3_6 - pro7R3 >= 0
pro6R3 - x3_3_6 + p15R3 + x4_3_6 - pro7R3 >= 0
x3_3_6 - pro6R3 + p15R3 + x4_3_6 + pro7R3 >= 0
pro6R3 + x3_3_6 + p15R3 + x4_3_6 + pro7R3 <= 4
pro7R3 - x3_3_7 - p0R3 + x4_3_7 + pro8R3 >= 0
pro7R3 + x3_3_7 + p0R3 - x4_3_7 - pro8R3 >= 0
pro7R3 + x3_3_7 - p0R3 - x4_3_7 + pro8R3 >= 0
pro7R3 - x3_3_7 + p0R3 - x4_3_7 + pro8R3 >= 0
pro7R3 + x3_3_7 - p0R3 + x4_3_7 - pro8R3 >= 0
pro7R3 - x3_3_7 + p0R3 + x4_3_7 - pro8R3 >= 0
x3_3_7 - pro7R3 + p0R3 + x4_3_7 + pro8R3 >= 0
pro7R3 + x3_3_7 + p0R3 + x4_3_7 + pro8R3 <= 4
pro8R3 - x3_3_8 - p1R3 + x4_3_8 + pro9R3 >= 0
pro8R3 + x3_3_8 + p1R3 - x4_3_8 - pro9R3 >= 0
pro8R3 + x3_3_8 - p1R3 - x4_3_8 + pro9R3 >= 0
pro8R3 - x3_3_8 + p1R3 - x4_3_8 + pro9R3 >= 0
pro8R3 + x3_3_8 - p1R3 + x4_3_8 - pro9R3 >= 0
pro8R3 - x3_3_8 + p1R3 + x4_3_8 - pro9R3 >= 0
x3_3_8 - pro8R3 + p1R3 + x4_3_8 + pro9R3 >= 0
pro8R3 + x3_3_8 + p1R3 + x4_3_8 + pro9R3 <= 4
pro9R3 - x3_3_9 - p2R3 + x4_3_9 + pro10R3 >= 0
pro9R3 + x3_3_9 + p2R3 - x4_3_9 - pro10R3 >= 0
pro9R3 + x3_3_9 - p2R3 - x4_3_9 + pro10R3 >= 0
pro9R3 - x3_3_9 + p2R3 - x4_3_9 + pro10R3 >= 0
pro9R3 + x3_3_9 - p2R3 + x4_3_9 - pro10R3 >= 0
pro9R3 - x3_3_9 + p2R3 + x4_3_9 - pro10R3 >= 0
x3_3_9 - pro9R3 + p2R3 + x4_3_9 + pro10R3 >= 0
pro9R3 + x3_3_9 + p2R3 + x4_3_9 + pro10R3 <= 4
pro10R3 - x3_3_10 - p3R3 + x4_3_10 + pro11R3 >= 0
pro10R3 + x3_3_10 + p3R3 - x4_3_10 - pro11R3 >= 0
pro10R3 + x3_3_10 - p3R3 - x4_3_10 + pro11R3 >= 0
pro10R3 - x3_3_10 + p3R3 - x4_3_10 + pro11R3 >= 0
pro10R3 + x3_3_10 - p3R3 + x4_3_10 - pro11R3 >= 0
pro10R3 - x3_3_10 + p3R3 + x4_3_10 - pro11R3 >= 0
x3_3_10 - pro10R3 + p3R3 + x4_3_10 + pro11R3 >= 0
pro10R3 + x3_3_10 + p3R3 + x4_3_10 + pro11R3 <= 4
pro11R3 - x3_3_11 - p4R3 + x4_3_11 + pro12R3 >= 0
pro11R3 + x3_3_11 + p4R3 - x4_3_11 - pro12R3 >= 0
pro11R3 + x3_3_11 - p4R3 - x4_3_11 + pro12R3 >= 0
pro11R3 - x3_3_11 + p4R3 - x4_3_11 + pro12R3 >= 0
pro11R3 + x3_3_11 - p4R3 + x4_3_11 - pro12R3 >= 0
pro11R3 - x3_3_11 + p4R3 + x4_3_11 - pro12R3 >= 0
x3_3_11 - pro11R3 + p4R3 + x4_3_11 + pro12R3 >= 0
pro11R3 + x3_3_11 + p4R3 + x4_3_11 + pro12R3 <= 4
pro12R3 - x3_3_12 - p5R3 + x4_3_12 + pro13R3 >= 0
pro12R3 + x3_3_12 + p5R3 - x4_3_12 - pro13R3 >= 0
pro12R3 + x3_3_12 - p5R3 - x4_3_12 + pro13R3 >= 0
pro12R3 - x3_3_12 + p5R3 - x4_3_12 + pro13R3 >= 0
pro12R3 + x3_3_12 - p5R3 + x4_3_12 - pro13R3 >= 0
pro12R3 - x3_3_12 + p5R3 + x4_3_12 - pro13R3 >= 0
x3_3_12 - pro12R3 + p5R3 + x4_3_12 + pro13R3 >= 0
pro12R3 + x3_3_12 + p5R3 + x4_3_12 + pro13R3 <= 4
pro13R3 - x3_3_13 - p6R3 + x4_3_13 + pro14R3 >= 0
pro13R3 + x3_3_13 + p6R3 - x4_3_13 - pro14R3 >= 0
pro13R3 + x3_3_13 - p6R3 - x4_3_13 + pro14R3 >= 0
pro13R3 - x3_3_13 + p6R3 - x4_3_13 + pro14R3 >= 0
pro13R3 + x3_3_13 - p6R3 + x4_3_13 - pro14R3 >= 0
pro13R3 - x3_3_13 + p6R3 + x4_3_13 - pro14R3 >= 0
x3_3_13 - pro13R3 + p6R3 + x4_3_13 + pro14R3 >= 0
pro13R3 + x3_3_13 + p6R3 + x4_3_13 + pro14R3 <= 4
pro14R3 - x3_3_14 - p7R3 + x4_3_14 + pro15R3 >= 0
pro14R3 + x3_3_14 + p7R3 - x4_3_14 - pro15R3 >= 0
pro14R3 + x3_3_14 - p7R3 - x4_3_14 + pro15R3 >= 0
pro14R3 - x3_3_14 + p7R3 - x4_3_14 + pro15R3 >= 0
pro14R3 + x3_3_14 - p7R3 + x4_3_14 - pro15R3 >= 0
pro14R3 - x3_3_14 + p7R3 + x4_3_14 - pro15R3 >= 0
x3_3_14 - pro14R3 + p7R3 + x4_3_14 + pro15R3 >= 0
pro14R3 + x3_3_14 + p7R3 + x4_3_14 + pro15R3 <= 4
pro15R3 - x3_3_15 - p8R3 + x4_3_15 + pro16R3 >= 0
pro15R3 + x3_3_15 + p8R3 - x4_3_15 - pro16R3 >= 0
pro15R3 + x3_3_15 - p8R3 - x4_3_15 + pro16R3 >= 0
pro15R3 - x3_3_15 + p8R3 - x4_3_15 + pro16R3 >= 0
pro15R3 + x3_3_15 - p8R3 + x4_3_15 - pro16R3 >= 0
pro15R3 - x3_3_15 + p8R3 + x4_3_15 - pro16R3 >= 0
x3_3_15 - pro15R3 + p8R3 + x4_3_15 + pro16R3 >= 0
pro15R3 + x3_3_15 + p8R3 + x4_3_15 + pro16R3 <= 4


Binary
pro0R1
pro1R1
pro2R1
pro3R1
pro4R1
pro5R1
pro6R1
pro7R1
pro8R1
pro9R1
pro10R1
pro11R1
pro12R1
pro13R1
pro14R1
pro15R1
pro16R1
x4_1_0
x4_1_1
x4_1_2
x4_1_3
x4_1_4
x4_1_5
x4_1_6
x4_1_7
x4_1_8
x4_1_9
x4_1_10
x4_1_11
x4_1_12
x4_1_13
x4_1_14
x4_1_15
x3_1_0
x3_1_1
x3_1_2
x3_1_3
x3_1_4
x3_1_5
x3_1_6
x3_1_7
x3_1_8
x3_1_9
x3_1_10
x3_1_11
x3_1_12
x3_1_13
x3_1_14
x3_1_15
d0R1
d1R1
d2R1
d3R1
d4R1
d5R1
d6R1
d7R1
d8R1
d9R1
d10R1
d11R1
d12R1
d13R1
d14R1
d15R1
d16R1
d17R1
d18R1
d19R1
d20R1
d21R1
d22R1
d23R1
d24R1
d25R1
d26R1
d27R1
d28R1
d29R1
d30R1
d31R1
pro0R2
pro1R2
pro2R2
pro3R2
pro4R2
pro5R2
pro6R2
pro7R2
pro8R2
pro9R2
pro10R2
pro11R2
pro12R2
pro13R2
pro14R2
pro15R2
pro16R2
x4_2_0
x4_2_1
x4_2_2
x4_2_3
x4_2_4
x4_2_5
x4_2_6
x4_2_7
x4_2_8
x4_2_9
x4_2_10
x4_2_11
x4_2_12
x4_2_13
x4_2_14
x4_2_15
x3_2_0
x3_2_1
x3_2_2
x3_2_3
x3_2_4
x3_2_5
x3_2_6
x3_2_7
x3_2_8
x3_2_9
x3_2_10
x3_2_11
x3_2_12
x3_2_13
x3_2_14
x3_2_15
d0R2
d1R2
d2R2
d3R2
d4R2
d5R2
d6R2
d7R2
d8R2
d9R2
d10R2
d11R2
d12R2
d13R2
d14R2
d15R2
d16R2
d17R2
d18R2
d19R2
d20R2
d21R2
d22R2
d23R2
d24R2
d25R2
d26R2
d27R2
d28R2
d29R2
d30R2
d31R2
pro0R3
pro1R3
pro2R3
pro3R3
pro4R3
pro5R3
pro6R3
pro7R3
pro8R3
pro9R3
pro10R3
pro11R3
pro12R3
pro13R3
pro14R3
pro15R3
pro16R3
x4_3_0
x4_3_1
x4_3_2
x4_3_3
x4_3_4
x4_3_5
x4_3_6
x4_3_7
x4_3_8
x4_3_9
x4_3_10
x4_3_11
x4_3_12
x4_3_13
x4_3_14
x4_3_15
x3_3_0
x3_3_1
x3_3_2
x3_3_3
x3_3_4
x3_3_5
x3_3_6
x3_3_7
x3_3_8
x3_3_9
x3_3_10
x3_3_11
x3_3_12
x3_3_13
x3_3_14
x3_3_15
d0R3
d1R3
d2R3
d3R3
d4R3
d5R3
d6R3
d7R3
d8R3
d9R3
d10R3
d11R3
d12R3
d13R3
d14R3
d15R3
d16R3
d17R3
d18R3
d19R3
d20R3
d21R3
d22R3
d23R3
d24R3
d25R3
d26R3
d27R3
d28R3
d29R3
d30R3
d31R3
